<number of tasks>
20

<cycle time>
1000

<order strength>
0,5


<task times>
1 116
2 139
3 226
4 193
5 119
6 137
7 76
8 40
9 400
10 179
11 81
12 120
13 121
14 97
15 150
16 172
17 50
18 185
19 143
20 78

<precedence relations>
1,4
1,6
2,5
3,12
3,15
4,9
5,19
5,20
6,7
6,8
6,9
7,11
8,11
8,16
8,18
8,19
9,10
9,11
10,12
10,13
10,14
10,15
11,14
11,15
12,19
13,16
13,17
13,18
15,17
15,20

<end>
